Scenario: Comparing two individuals correctly

As an machine learning researcher
I want to be able to correctly compare
individuals from a clause list

Given a SAT evaluator
When I have this clauseList
p cnf 4 4
1
2
3
4
And I have individuals: <individualA> and <individualB>
Then the result of the comparison is <result>

Examples:

|individualA|individualB|result|
|0000|0000|0|
|0001|0011|-|
|1101|0100|+|
|1001|1110|-|
|1111|1110|+|
|1010|1010|0|
|1001|0110|0|